50, 62425
186, 2551
141, 2552
891, 2553
871, 2554
134, 2555
353, 2556
180, 2557
736, 2558
11, 2559
849, 2560
173, 2561
772, 2562
540, 2563
390, 2564
609, 2565
670, 2566
579, 2567
153, 2568
93, 2569
344, 2570
872, 2571
743, 2572
96, 2573
777, 2574
907, 2575
327, 2576
795, 2577
903, 2578
93, 2579
673, 2580
778, 2581
213, 2582
739, 2583
8, 2584
169, 2585
990, 2586
842, 2587
313, 2588
536, 2589
31, 2590
739, 2591
873, 2592
727, 2593
784, 2594
128, 2595
131, 2596
897, 2597
555, 2598
125, 2599
663, 2600
